100
120
100
100
99
98
97
96
95
93
87
87
86
85
85
85
84
83
82
82
81
80
80
79
79
77
75
75
75
72
72
70
69
69
66
66
66
63
62
62
61
61
60
57
57
57
55
53
52
52
48
48
47
46
43
43
42
41
41
40
40
38
37
37
37
36
34
32
31
31
31
30
29
29
28
28
26
26
26
25
24
22
19
16
16
15
15
14
14
13
9
9
8
7
6
6
5
4
4
4
3
1
